p cnf 604 55
f3_line
380 385 390 395 400 0
-380 -385 0
-380 -390 0
-380 -395 0
-380 -400 0
-385 -390 0
-385 -395 0
-385 -400 0
-390 -395 0
-390 -400 0
-395 -400 0
403 408 413 418 423 0
-403 -408 0
-403 -413 0
-403 -418 0
-403 -423 0
-408 -413 0
-408 -418 0
-408 -423 0
-413 -418 0
-413 -423 0
-418 -423 0
427 432 437 442 447 0
-427 -432 0
-427 -437 0
-427 -442 0
-427 -447 0
-432 -437 0
-432 -442 0
-432 -447 0
-437 -442 0
-437 -447 0
-442 -447 0
454 459 464 469 474 0
-454 -459 0
-454 -464 0
-454 -469 0
-454 -474 0
-459 -464 0
-459 -469 0
-459 -474 0
-464 -469 0
-464 -474 0
-469 -474 0
476 481 486 491 496 0
-476 -481 0
-476 -486 0
-476 -491 0
-476 -496 0
-481 -486 0
-481 -491 0
-481 -496 0
-486 -491 0
-486 -496 0
-491 -496 0
